Gurobi Optimizer version 10.0.3 build v10.0.3rc0 (win64)

CPU model: 13th Gen Intel(R) Core(TM) i7-13700T, instruction set [SSE2|AVX|AVX2]
Thread count: 16 physical cores, 24 logical processors, using up to 24 threads

Optimize a model with 16910235 rows, 851279 columns and 34334135 nonzeros
Model fingerprint: 0xa6b8d3dc
Variable types: 0 continuous, 851279 integer (184500 binary)
Coefficient statistics:
  Matrix range     [1e+00, 6e+02]
  Objective range  [6e+00, 3e+02]
  Bounds range     [1e+00, 1e+00]
  RHS range        [1e+00, 6e+02]
Presolve removed 237690 rows and 473771 columns (presolve time = 5s) ...
Presolve removed 403278 rows and 473771 columns (presolve time = 11s) ...
Presolve removed 403384 rows and 473881 columns (presolve time = 15s) ...
Presolve removed 403384 rows and 473881 columns (presolve time = 20s) ...
Presolve removed 403384 rows and 473881 columns (presolve time = 25s) ...
Presolve removed 403384 rows and 473881 columns (presolve time = 30s) ...
Presolve removed 403384 rows and 473881 columns (presolve time = 35s) ...
Presolve removed 403384 rows and 473881 columns (presolve time = 40s) ...
Presolve removed 403384 rows and 473881 columns (presolve time = 45s) ...
Presolve removed 403384 rows and 473881 columns (presolve time = 50s) ...
Presolve removed 403384 rows and 473881 columns (presolve time = 55s) ...
Presolve removed 403384 rows and 473881 columns (presolve time = 60s) ...
Presolve removed 403384 rows and 473881 columns (presolve time = 65s) ...
Presolve removed 403384 rows and 473881 columns (presolve time = 70s) ...
Presolve removed 403384 rows and 473881 columns (presolve time = 75s) ...
Presolve removed 403384 rows and 473881 columns (presolve time = 80s) ...
Presolve removed 403384 rows and 523334 columns (presolve time = 85s) ...
Presolve removed 403384 rows and 523334 columns (presolve time = 90s) ...
Presolve removed 1350478 rows and 523334 columns (presolve time = 96s) ...
Presolve removed 2580951 rows and 523938 columns (presolve time = 100s) ...
Presolve removed 2580951 rows and 523999 columns (presolve time = 105s) ...
Presolve removed 2580951 rows and 523999 columns (presolve time = 110s) ...
Presolve removed 2581123 rows and 523999 columns (presolve time = 115s) ...
Presolve removed 2581123 rows and 523999 columns (presolve time = 120s) ...
Presolve removed 2581123 rows and 523999 columns (presolve time = 125s) ...
Presolve removed 2581123 rows and 523999 columns (presolve time = 130s) ...
Presolve removed 2581123 rows and 523999 columns (presolve time = 135s) ...
Presolve removed 2581123 rows and 523999 columns (presolve time = 140s) ...
Presolve removed 2581123 rows and 523999 columns (presolve time = 145s) ...
Presolve removed 2581123 rows and 523999 columns (presolve time = 150s) ...
Presolve removed 2906340 rows and 555201 columns (presolve time = 155s) ...
Presolve removed 4695210 rows and 555204 columns (presolve time = 160s) ...
Presolve removed 4715405 rows and 574019 columns (presolve time = 165s) ...
Presolve removed 4716355 rows and 574019 columns (presolve time = 170s) ...
Presolve removed 4716355 rows and 574019 columns (presolve time = 175s) ...
Presolve removed 4716355 rows and 574019 columns (presolve time = 180s) ...
Presolve removed 4716355 rows and 574019 columns (presolve time = 185s) ...
Presolve removed 4716355 rows and 574019 columns (presolve time = 190s) ...
Presolve removed 4716355 rows and 574019 columns (presolve time = 195s) ...
Presolve removed 4716355 rows and 574070 columns (presolve time = 200s) ...
Presolve removed 5884089 rows and 574073 columns (presolve time = 205s) ...
Presolve removed 5884089 rows and 574073 columns (presolve time = 210s) ...
Presolve removed 5944029 rows and 621760 columns (presolve time = 215s) ...
Presolve removed 5944029 rows and 621760 columns (presolve time = 220s) ...
Presolve removed 5944029 rows and 621760 columns (presolve time = 225s) ...
Presolve removed 5945376 rows and 621760 columns (presolve time = 230s) ...
Presolve removed 5945394 rows and 621760 columns (presolve time = 235s) ...
Presolve removed 5945394 rows and 621760 columns (presolve time = 240s) ...
Presolve removed 5945424 rows and 621760 columns (presolve time = 245s) ...
Presolve removed 5945655 rows and 621760 columns (presolve time = 250s) ...
Presolve removed 5946312 rows and 621760 columns (presolve time = 255s) ...
Presolve removed 6306512 rows and 621760 columns (presolve time = 261s) ...
Presolve removed 6330616 rows and 621760 columns (presolve time = 266s) ...
Presolve removed 6348091 rows and 621760 columns (presolve time = 271s) ...
Presolve removed 6374400 rows and 621760 columns (presolve time = 277s) ...
Presolve removed 6390531 rows and 621760 columns (presolve time = 281s) ...
Presolve removed 6413101 rows and 621760 columns (presolve time = 286s) ...
Presolve removed 6433981 rows and 621760 columns (presolve time = 291s) ...
Presolve removed 6452767 rows and 621760 columns (presolve time = 296s) ...
Presolve removed 6471225 rows and 621760 columns (presolve time = 300s) ...
Presolve removed 6490693 rows and 621760 columns (presolve time = 305s) ...
Presolve removed 6511798 rows and 621760 columns (presolve time = 310s) ...
Presolve removed 6532547 rows and 621760 columns (presolve time = 316s) ...
Presolve removed 6554356 rows and 621760 columns (presolve time = 321s) ...
Presolve removed 6570019 rows and 621760 columns (presolve time = 325s) ...
Presolve removed 6591536 rows and 621760 columns (presolve time = 330s) ...
Presolve removed 6613766 rows and 621760 columns (presolve time = 336s) ...
Presolve removed 6636812 rows and 621760 columns (presolve time = 341s) ...
Presolve removed 6653379 rows and 621760 columns (presolve time = 346s) ...
Presolve removed 6676333 rows and 621760 columns (presolve time = 351s) ...
Presolve removed 6696308 rows and 621760 columns (presolve time = 356s) ...
Presolve removed 6717067 rows and 621760 columns (presolve time = 361s) ...
Presolve removed 6732490 rows and 621760 columns (presolve time = 365s) ...
Presolve removed 6755918 rows and 621760 columns (presolve time = 371s) ...
Presolve removed 6778508 rows and 621760 columns (presolve time = 377s) ...
Presolve removed 6793152 rows and 621760 columns (presolve time = 380s) ...
Presolve removed 6815437 rows and 621760 columns (presolve time = 386s) ...
Presolve removed 6836069 rows and 621760 columns (presolve time = 391s) ...
Presolve removed 6852817 rows and 621760 columns (presolve time = 395s) ...
Presolve removed 6874204 rows and 621760 columns (presolve time = 401s) ...
Presolve removed 6896738 rows and 621760 columns (presolve time = 406s) ...
Presolve removed 6922248 rows and 621760 columns (presolve time = 412s) ...
Presolve removed 6937623 rows and 621760 columns (presolve time = 416s) ...
Presolve removed 6955859 rows and 621760 columns (presolve time = 420s) ...
Presolve removed 6975398 rows and 621760 columns (presolve time = 425s) ...
Presolve removed 6995071 rows and 624115 columns (presolve time = 430s) ...
Presolve removed 8083889 rows and 624115 columns (presolve time = 435s) ...
Presolve removed 8131504 rows and 671730 columns (presolve time = 440s) ...
Presolve removed 8145003 rows and 671730 columns (presolve time = 445s) ...
Presolve removed 8145003 rows and 671730 columns (presolve time = 450s) ...
Presolve removed 8145003 rows and 671730 columns (presolve time = 455s) ...
Presolve removed 8146873 rows and 671730 columns (presolve time = 460s) ...
Presolve removed 8146873 rows and 671730 columns (presolve time = 465s) ...
Presolve removed 8146873 rows and 671730 columns (presolve time = 470s) ...
Presolve removed 8146873 rows and 671730 columns (presolve time = 476s) ...
Presolve removed 8146873 rows and 671730 columns (presolve time = 481s) ...
Presolve removed 8146873 rows and 671730 columns (presolve time = 485s) ...
Presolve removed 8146873 rows and 671730 columns (presolve time = 490s) ...
Presolve removed 8146873 rows and 671730 columns (presolve time = 495s) ...
Presolve removed 8146873 rows and 671730 columns (presolve time = 500s) ...
Presolve removed 8146873 rows and 671730 columns (presolve time = 506s) ...
Presolve removed 8146873 rows and 671730 columns (presolve time = 511s) ...
Presolve removed 8146873 rows and 671730 columns (presolve time = 515s) ...
Presolve removed 8146873 rows and 671730 columns (presolve time = 520s) ...
Presolve removed 8146873 rows and 671730 columns (presolve time = 526s) ...
Presolve removed 8146873 rows and 671730 columns (presolve time = 531s) ...
Presolve removed 8146873 rows and 671730 columns (presolve time = 535s) ...
Presolve removed 8146873 rows and 671730 columns (presolve time = 541s) ...
Presolve removed 8146873 rows and 671730 columns (presolve time = 545s) ...
Presolve removed 8146873 rows and 671730 columns (presolve time = 551s) ...
Presolve removed 8146873 rows and 671730 columns (presolve time = 556s) ...
Presolve removed 8146873 rows and 671730 columns (presolve time = 560s) ...
Presolve removed 8146873 rows and 671730 columns (presolve time = 565s) ...
Presolve removed 8146873 rows and 671730 columns (presolve time = 571s) ...
Presolve removed 8146896 rows and 671730 columns (presolve time = 576s) ...
Presolve removed 8146896 rows and 671730 columns (presolve time = 581s) ...
Presolve removed 8146896 rows and 671730 columns (presolve time = 586s) ...
Presolve removed 8146896 rows and 671730 columns (presolve time = 590s) ...
Presolve removed 8146896 rows and 671730 columns (presolve time = 595s) ...
Presolve removed 8146896 rows and 671730 columns (presolve time = 600s) ...
Presolve removed 8146896 rows and 671730 columns (presolve time = 605s) ...
Presolve removed 8146896 rows and 671730 columns (presolve time = 611s) ...
Presolve removed 8146896 rows and 671730 columns (presolve time = 615s) ...
Presolve removed 8146931 rows and 671730 columns (presolve time = 620s) ...
Presolve removed 8146934 rows and 671730 columns (presolve time = 625s) ...
Presolve removed 8146934 rows and 671730 columns (presolve time = 631s) ...
Presolve removed 8146934 rows and 671730 columns (presolve time = 636s) ...
Presolve removed 8146934 rows and 671730 columns (presolve time = 640s) ...
Presolve removed 8146934 rows and 671730 columns (presolve time = 646s) ...
Presolve removed 8146934 rows and 671730 columns (presolve time = 650s) ...
Presolve removed 8146934 rows and 671730 columns (presolve time = 656s) ...
Presolve removed 8146934 rows and 671730 columns (presolve time = 660s) ...
Presolve removed 8146934 rows and 671730 columns (presolve time = 665s) ...
Presolve removed 8146934 rows and 671730 columns (presolve time = 671s) ...
Presolve removed 8147400 rows and 671730 columns (presolve time = 676s) ...
Presolve removed 8147421 rows and 671730 columns (presolve time = 680s) ...
Presolve removed 8147421 rows and 671730 columns (presolve time = 685s) ...
Presolve removed 8147421 rows and 671730 columns (presolve time = 691s) ...
Presolve removed 8147421 rows and 671730 columns (presolve time = 695s) ...
Presolve removed 8147421 rows and 671730 columns (presolve time = 700s) ...
Presolve removed 8148530 rows and 671730 columns (presolve time = 706s) ...
Presolve removed 8148530 rows and 671730 columns (presolve time = 710s) ...
Presolve removed 8148530 rows and 671730 columns (presolve time = 715s) ...
Presolve removed 8148530 rows and 671730 columns (presolve time = 720s) ...
Presolve removed 8148530 rows and 671730 columns (presolve time = 725s) ...
Presolve removed 8148530 rows and 671730 columns (presolve time = 730s) ...
Presolve removed 8148888 rows and 671730 columns (presolve time = 735s) ...
Presolve removed 8148888 rows and 671730 columns (presolve time = 741s) ...
Presolve removed 8149218 rows and 671730 columns (presolve time = 746s) ...
Presolve removed 8149255 rows and 671730 columns (presolve time = 751s) ...
Presolve removed 8490152 rows and 671730 columns (presolve time = 756s) ...
Presolve removed 8496024 rows and 671730 columns (presolve time = 771s) ...
Presolve removed 8502269 rows and 671730 columns (presolve time = 778s) ...
Presolve removed 8509120 rows and 671730 columns (presolve time = 783s) ...
Presolve removed 8516206 rows and 671730 columns (presolve time = 806s) ...
Presolve removed 8524586 rows and 671730 columns (presolve time = 835s) ...
Presolve removed 8533236 rows and 671730 columns (presolve time = 865s) ...
Presolve removed 8541903 rows and 671730 columns (presolve time = 895s) ...
Presolve removed 8550700 rows and 671730 columns (presolve time = 926s) ...
Presolve removed 8559470 rows and 671730 columns (presolve time = 957s) ...
Presolve removed 8568066 rows and 671730 columns (presolve time = 988s) ...
Presolve removed 8576941 rows and 671730 columns (presolve time = 1020s) ...
Presolve removed 8584763 rows and 671730 columns (presolve time = 1047s) ...
Presolve removed 8593125 rows and 671730 columns (presolve time = 1077s) ...
Presolve removed 8601019 rows and 671730 columns (presolve time = 1100s) ...
Presolve removed 8608807 rows and 671730 columns (presolve time = 1102s) ...
Presolve removed 8615638 rows and 671730 columns (presolve time = 1112s) ...
Presolve removed 8622980 rows and 671730 columns (presolve time = 1163s) ...
Presolve removed 8630074 rows and 671730 columns (presolve time = 1218s) ...
Presolve removed 8636442 rows and 671730 columns (presolve time = 1265s) ...
Presolve removed 8642832 rows and 671730 columns (presolve time = 1288s) ...
Presolve removed 8654999 rows and 671730 columns (presolve time = 1292s) ...
Presolve removed 8667246 rows and 671730 columns (presolve time = 1295s) ...
Presolve removed 8687564 rows and 671730 columns (presolve time = 1301s) ...
Presolve removed 8703754 rows and 671730 columns (presolve time = 1306s) ...
Presolve removed 8719268 rows and 671730 columns (presolve time = 1310s) ...
Presolve removed 8740196 rows and 671730 columns (presolve time = 1316s) ...
Presolve removed 8756320 rows and 671730 columns (presolve time = 1321s) ...
Presolve removed 8772035 rows and 671730 columns (presolve time = 1325s) ...
Presolve removed 8793453 rows and 671730 columns (presolve time = 1331s) ...
Presolve removed 8810054 rows and 671730 columns (presolve time = 1336s) ...
Presolve removed 8825980 rows and 671730 columns (presolve time = 1341s) ...
Presolve removed 8844097 rows and 671730 columns (presolve time = 1346s) ...
Presolve removed 8860313 rows and 671730 columns (presolve time = 1351s) ...
Presolve removed 8878116 rows and 671730 columns (presolve time = 1355s) ...
Presolve removed 8897918 rows and 671730 columns (presolve time = 1361s) ...
Presolve removed 8918712 rows and 671730 columns (presolve time = 1367s) ...
Presolve removed 8934202 rows and 671730 columns (presolve time = 1371s) ...
Presolve removed 8948970 rows and 671730 columns (presolve time = 1375s) ...
Presolve removed 8973459 rows and 671730 columns (presolve time = 1382s) ...
Presolve removed 8987137 rows and 671730 columns (presolve time = 1386s) ...
Presolve removed 9002726 rows and 671730 columns (presolve time = 1390s) ...
Presolve removed 9023171 rows and 671730 columns (presolve time = 1396s) ...
Presolve removed 9046306 rows and 671730 columns (presolve time = 1402s) ...
Presolve removed 9062093 rows and 671730 columns (presolve time = 1407s) ...
Presolve removed 9075789 rows and 671730 columns (presolve time = 1411s) ...
Presolve removed 9098480 rows and 671730 columns (presolve time = 1417s) ...
Presolve removed 9115506 rows and 671730 columns (presolve time = 1422s) ...
Presolve removed 9139576 rows and 671730 columns (presolve time = 1428s) ...
Presolve removed 9157904 rows and 671730 columns (presolve time = 1433s) ...
Presolve removed 9177606 rows and 671730 columns (presolve time = 1439s) ...
Presolve removed 9183340 rows and 671730 columns (presolve time = 1441s) ...
Presolve removed 10280659 rows and 674086 columns (presolve time = 1445s) ...
Presolve removed 10280659 rows and 674086 columns (presolve time = 1450s) ...
Presolve removed 10342757 rows and 721549 columns (presolve time = 1455s) ...
Presolve removed 10342757 rows and 721549 columns (presolve time = 1460s) ...
Presolve removed 10346679 rows and 721549 columns (presolve time = 1465s) ...
Presolve removed 10346707 rows and 721549 columns (presolve time = 1470s) ...
Presolve removed 10347453 rows and 721549 columns (presolve time = 1475s) ...
Presolve removed 10748689 rows and 721549 columns (presolve time = 1480s) ...
Presolve removed 10932875 rows and 721549 columns (presolve time = 1485s) ...
Presolve removed 11133688 rows and 721549 columns (presolve time = 1490s) ...
Presolve removed 11339828 rows and 721549 columns (presolve time = 1495s) ...
Presolve removed 12476867 rows and 723917 columns (presolve time = 1500s) ...
Presolve removed 12512950 rows and 760000 columns (presolve time = 1505s) ...
Presolve removed 12541105 rows and 771255 columns (presolve time = 1510s) ...
Presolve removed 12541105 rows and 771255 columns (presolve time = 1515s) ...
Presolve removed 12546582 rows and 771255 columns (presolve time = 1520s) ...
Presolve removed 12546683 rows and 771255 columns (presolve time = 1525s) ...
Presolve removed 12892916 rows and 771255 columns (presolve time = 1530s) ...
Presolve removed 12921416 rows and 771255 columns (presolve time = 1535s) ...
Presolve removed 12956054 rows and 771255 columns (presolve time = 1541s) ...
Presolve removed 12981421 rows and 771255 columns (presolve time = 1546s) ...
Presolve removed 13012343 rows and 771255 columns (presolve time = 1551s) ...
Presolve removed 13039386 rows and 771255 columns (presolve time = 1555s) ...
Presolve removed 13070517 rows and 771255 columns (presolve time = 1561s) ...
Presolve removed 13100452 rows and 771255 columns (presolve time = 1566s) ...
Presolve removed 13126678 rows and 771255 columns (presolve time = 1570s) ...
Presolve removed 13157559 rows and 771255 columns (presolve time = 1575s) ...
Presolve removed 13185504 rows and 771255 columns (presolve time = 1580s) ...
Presolve removed 13217869 rows and 771255 columns (presolve time = 1586s) ...
Presolve removed 13247262 rows and 771255 columns (presolve time = 1591s) ...
Presolve removed 13276146 rows and 771255 columns (presolve time = 1595s) ...
Presolve removed 13310149 rows and 771255 columns (presolve time = 1601s) ...
Presolve removed 13340090 rows and 771255 columns (presolve time = 1606s) ...
Presolve removed 13364882 rows and 771255 columns (presolve time = 1611s) ...
Presolve removed 13393844 rows and 771255 columns (presolve time = 1615s) ...
Presolve removed 13421601 rows and 771255 columns (presolve time = 1620s) ...
Presolve removed 13453476 rows and 771255 columns (presolve time = 1626s) ...
Presolve removed 13482618 rows and 771255 columns (presolve time = 1631s) ...
Presolve removed 13515616 rows and 771255 columns (presolve time = 1637s) ...
Presolve removed 13549267 rows and 771255 columns (presolve time = 1642s) ...
Presolve removed 13569278 rows and 771255 columns (presolve time = 1646s) ...
Presolve removed 14673134 rows and 773644 columns (presolve time = 1650s) ...
Presolve removed 14673134 rows and 773644 columns (presolve time = 1655s) ...
Presolve removed 14737778 rows and 820740 columns (presolve time = 1660s) ...
Presolve removed 14745167 rows and 820740 columns (presolve time = 1665s) ...
Presolve removed 15098379 rows and 820740 columns (presolve time = 1672s) ...
Presolve removed 15113772 rows and 820740 columns (presolve time = 1675s) ...
Presolve removed 15139676 rows and 820740 columns (presolve time = 1682s) ...
Presolve removed 15157006 rows and 820740 columns (presolve time = 1686s) ...
Presolve removed 15173635 rows and 820740 columns (presolve time = 1690s) ...
Presolve removed 15197694 rows and 820740 columns (presolve time = 1696s) ...
Presolve removed 15218763 rows and 820740 columns (presolve time = 1701s) ...
Presolve removed 15238087 rows and 820740 columns (presolve time = 1706s) ...
Presolve removed 15256348 rows and 820740 columns (presolve time = 1711s) ...
Presolve removed 15276788 rows and 820740 columns (presolve time = 1716s) ...
Presolve removed 15298388 rows and 820740 columns (presolve time = 1721s) ...
Presolve removed 15319699 rows and 820740 columns (presolve time = 1726s) ...
Presolve removed 15341402 rows and 820740 columns (presolve time = 1731s) ...
Presolve removed 15363040 rows and 820740 columns (presolve time = 1736s) ...
Presolve removed 15379169 rows and 820740 columns (presolve time = 1740s) ...
Presolve removed 15401656 rows and 820740 columns (presolve time = 1746s) ...
Presolve removed 15424614 rows and 820740 columns (presolve time = 1752s) ...
Presolve removed 15441527 rows and 820740 columns (presolve time = 1756s) ...
Presolve removed 15458954 rows and 820740 columns (presolve time = 1760s) ...
Presolve removed 15478635 rows and 820740 columns (presolve time = 1765s) ...
Presolve removed 15498394 rows and 820740 columns (presolve time = 1770s) ...
Presolve removed 15521224 rows and 820740 columns (presolve time = 1776s) ...
Presolve removed 15536223 rows and 820740 columns (presolve time = 1780s) ...
Presolve removed 15560092 rows and 820740 columns (presolve time = 1786s) ...
Presolve removed 15581728 rows and 820740 columns (presolve time = 1792s) ...
Presolve removed 15596992 rows and 820740 columns (presolve time = 1796s) ...
Presolve removed 15617696 rows and 820740 columns (presolve time = 1801s) ...
Presolve removed 15634151 rows and 820740 columns (presolve time = 1805s) ...
Presolve removed 15656573 rows and 820740 columns (presolve time = 1811s) ...
Presolve removed 15679584 rows and 820740 columns (presolve time = 1816s) ...
Presolve removed 15695638 rows and 820740 columns (presolve time = 1820s) ...
Presolve removed 15728038 rows and 820740 columns (presolve time = 1829s) ...
Presolve removed 15745627 rows and 820740 columns (presolve time = 1833s) ...
Presolve removed 15765320 rows and 820740 columns (presolve time = 1838s) ...
Presolve removed 15771280 rows and 823159 columns (presolve time = 1840s) ...
Presolve removed 16366733 rows and 846201 columns (presolve time = 1845s) ...
Presolve removed 16551215 rows and 846201 columns (presolve time = 1850s) ...
Presolve removed 16583692 rows and 846201 columns (presolve time = 1856s) ...
Presolve removed 16610126 rows and 846201 columns (presolve time = 1861s) ...
Presolve removed 16639651 rows and 846201 columns (presolve time = 1866s) ...
Presolve removed 16667942 rows and 846201 columns (presolve time = 1871s) ...
Presolve removed 16697167 rows and 846201 columns (presolve time = 1876s) ...
Presolve removed 16722355 rows and 846201 columns (presolve time = 1881s) ...
Presolve removed 16752902 rows and 846201 columns (presolve time = 1886s) ...
Presolve removed 16782132 rows and 846201 columns (presolve time = 1891s) ...
Presolve removed 16813096 rows and 846201 columns (presolve time = 1896s) ...
Presolve removed 16845724 rows and 846201 columns (presolve time = 1901s) ...
Presolve removed 16903702 rows and 848273 columns (presolve time = 1905s) ...
Presolve removed 16904300 rows and 848462 columns
Presolve time: 1907.95s
Presolved: 5935 rows, 2817 columns, 14278 nonzeros
Variable types: 0 continuous, 2817 integer (809 binary)
Found heuristic solution: objective 36761.190000

Root simplex log...

Iteration    Objective       Primal Inf.    Dual Inf.      Time
       0    1.8342574e+05   1.566283e+03   0.000000e+00   1910s
    2806    9.7408672e+04   0.000000e+00   0.000000e+00   1910s

Root relaxation: objective 9.740867e+04, 2806 iterations, 0.02 seconds (0.02 work units)

    Nodes    |    Current Node    |     Objective Bounds      |     Work
 Expl Unexpl |  Obj  Depth IntInf | Incumbent    BestBd   Gap | It/Node Time

     0     0 97408.6716    0  730 36761.1900 97408.6716   165%     - 1910s
H    0     0                    88164.960000 97408.6716  10.5%     - 1910s
H    0     0                    88422.960000 97408.6716  10.2%     - 1910s
H    0     0                    88713.960000 97408.6716  9.80%     - 1910s
H    0     0                    94614.620000 97408.6716  2.95%     - 1910s
H    0     0                    94838.470000 97408.6716  2.71%     - 1910s
     0     0 95507.4950    0   84 94838.4700 95507.4950  0.71%     - 1910s
H    0     0                    95057.470000 95507.4950  0.47%     - 1910s
H    0     0                    95117.120000 95507.4950  0.41%     - 1910s
H    0     0                    95124.120000 95371.5200  0.26%     - 1910s
H    0     0                    95186.120000 95371.5200  0.19%     - 1910s
     0     0 95371.1484    0    9 95186.1200 95371.1484  0.19%     - 1910s
     0     0 95368.9763    0   61 95186.1200 95368.9763  0.19%     - 1910s
H    0     0                    95196.120000 95368.9763  0.18%     - 1910s
H    0     0                    95368.870000 95368.9763  0.00%     - 1910s

Cutting planes:
  Gomory: 19
  Cover: 322
  Implied bound: 134
  Clique: 100
  MIR: 30
  Flow cover: 29
  Zero half: 31
  Network: 8
  RLT: 11
  PSD: 15

Explored 1 nodes (3775 simplex iterations) in 1911.59 seconds (336.48 work units)
Thread count was 24 (of 24 available processors)

Solution count 10: 95368.9 95196.1 95186.1 ... 88423

Optimal solution found (tolerance 1.00e-04)
Best objective 9.536887000000e+04, best bound 9.536887000000e+04, gap 0.0000%
Valor da função objetivo:  95368.87000000001

Tempo para criar o modelo:  128.27686643600464
